#************************************************************************************
#*                  Generated by cif2cell 1.2.10 2020-04-08 16:05                   *
#*  T. Bjorkman, Comp. Phys. Commun. 182, 1183-1186 (2011). Please cite generously. *
#*                                                                                  *
#*                                         ()                                       *
#*                Wyckoff R W G, Crystal Structures 1, 85-237 (1963)                *
#************************************************************************************

&SYSTEM
  ibrav = 0
  A =    5.65370
  nat = 8
  ntyp = 2
/
CELL_PARAMETERS {alat}
  1.000000000000000   0.000000000000000   0.000000000000000 
  0.000000000000000   1.000000000000000   0.000000000000000 
  0.000000000000000   0.000000000000000   1.000000000000000 
ATOMIC_SPECIES
  Ga   69.72300  Ga_PSEUDO
  As   74.92100  As_PSEUDO
ATOMIC_POSITIONS {crystal}
As   0.250000000000000   0.250000000000000   0.250000000000000 
As   0.750000000000000   0.250000000000000   0.750000000000000 
As   0.750000000000000   0.750000000000000   0.250000000000000 
As   0.250000000000000   0.750000000000000   0.750000000000000 
Ga   0.000000000000000   0.000000000000000   0.000000000000000 
Ga   0.500000000000000   0.000000000000000   0.500000000000000 
Ga   0.000000000000000   0.500000000000000   0.500000000000000 
Ga   0.500000000000000   0.500000000000000   0.000000000000000 

# k-space resolution ~0.2/A.
K_POINTS automatic
6 6 6  0 0 0
