#************************************************************************************
#*                   Generated by cif2cell 1.2.7 2018-12-19 15:06                   *
#*  T. Bjorkman, Comp. Phys. Commun. 182, 1183-1186 (2011). Please cite generously. *
#*                                                                                  *
#*                                    B P   (BP)                                    *
#*                Wyckoff R W G, Crystal Structures 1, 85-237 (1963)                *
#************************************************************************************

&SYSTEM
  ibrav = 0
  A =    4.53800
  nat = 2
  ntyp = 2
/
CELL_PARAMETERS {alat}
  0.500000000000000   0.500000000000000   0.000000000000000 
  0.500000000000000   0.000000000000000   0.500000000000000 
  0.000000000000000   0.500000000000000   0.500000000000000 
ATOMIC_SPECIES
   P   30.97300   P_PSEUDO
   B   10.81350   B_PSEUDO
ATOMIC_POSITIONS {crystal}
P   0.250000000000000   0.250000000000000   0.250000000000000 
B   0.000000000000000   0.000000000000000   0.000000000000000 

# k-space resolution ~0.2/A.
K_POINTS automatic
12 12 12  0 0 0
