#************************************************************************************
#*                   Generated by cif2cell 1.2.7 2018-12-19 15:06                   *
#*  T. Bjorkman, Comp. Phys. Commun. 182, 1183-1186 (2011). Please cite generously. *
#*                                                                                  *
#*                                  C   (Diamond)                                   *
#*                 Wyckoff R W G, Crystal Structures 1, 7-83 (1963)                 *
#************************************************************************************

&SYSTEM
  ibrav = 0
  A =    3.56679
  nat = 2
  ntyp = 1
/
CELL_PARAMETERS {alat}
  0.500000000000000   0.500000000000000   0.000000000000000 
  0.500000000000000   0.000000000000000   0.500000000000000 
  0.000000000000000   0.500000000000000   0.500000000000000 
ATOMIC_SPECIES
   C   12.01060   C_PSEUDO
ATOMIC_POSITIONS {crystal}
C   0.000000000000000   0.000000000000000   0.000000000000000 
C   0.250000000000000   0.250000000000000   0.250000000000000 

# k-space resolution ~0.2/A.
K_POINTS automatic
15 15 15  0 0 0
