#************************************************************************************
#*                   Generated by cif2cell 1.2.7 2018-12-19 15:06                   *
#*  T. Bjorkman, Comp. Phys. Commun. 182, 1183-1186 (2011). Please cite generously. *
#*                                                                                  *
#*                                  C   (Graphite)                                  *
#*                 Wyckoff R W G, Crystal Structures 1, 7-83 (1963)                 *
#************************************************************************************

&SYSTEM
  ibrav = 0
  A =    2.45600
  nat = 4
  ntyp = 1
/
CELL_PARAMETERS {alat}
  0.866025403784439  -0.500000000000000   0.000000000000000 
  0.000000000000000   1.000000000000000   0.000000000000000 
  0.000000000000000   0.000000000000000   2.726384364820847 
ATOMIC_SPECIES
   C   12.01060   C_PSEUDO
ATOMIC_POSITIONS {crystal}
C   0.000000000000000   0.000000000000000   0.000000000000000 
C   0.000000000000000   0.000000000000000   0.500000000000000 
C   0.333333333333333   0.666666666666667   0.000000000000000 
C   0.666666666666667   0.333333333333333   0.500000000000000 

# k-space resolution ~0.2/A.
K_POINTS automatic
15 15 5  0 0 0
