#************************************************************************************
#*                   Generated by cif2cell 1.2.7 2018-12-19 15:06                   *
#*  T. Bjorkman, Comp. Phys. Commun. 182, 1183-1186 (2011). Please cite generously. *
#*                                                                                  *
#*                                  Cd Te   (CdTe)                                  *
#*                Wyckoff R W G, Crystal Structures 1, 85-237 (1963)                *
#************************************************************************************

&SYSTEM
  ibrav = 0
  A =    6.48000
  nat = 2
  ntyp = 2
/
CELL_PARAMETERS {alat}
  0.500000000000000   0.500000000000000   0.000000000000000 
  0.500000000000000   0.000000000000000   0.500000000000000 
  0.000000000000000   0.500000000000000   0.500000000000000 
ATOMIC_SPECIES
  Te  127.60000  Te_PSEUDO
  Cd  112.41100  Cd_PSEUDO
ATOMIC_POSITIONS {crystal}
Te   0.250000000000000   0.250000000000000   0.250000000000000 
Cd   0.000000000000000   0.000000000000000   0.000000000000000 

# k-space resolution ~0.2/A.
K_POINTS automatic
8 8 8  0 0 0
