#************************************************************************************
#*                   Generated by cif2cell 1.2.7 2018-12-19 15:06                   *
#*  T. Bjorkman, Comp. Phys. Commun. 182, 1183-1186 (2011). Please cite generously. *
#*                                                                                  *
#*                               Cu Cl   (Nantokite)                                *
#*                Wyckoff R W G, Crystal Structures 1, 85-237 (1963)                *
#************************************************************************************

&SYSTEM
  ibrav = 0
  A =    5.40570
  nat = 2
  ntyp = 2
/
CELL_PARAMETERS {alat}
  0.500000000000000   0.500000000000000   0.000000000000000 
  0.500000000000000   0.000000000000000   0.500000000000000 
  0.000000000000000   0.500000000000000   0.500000000000000 
ATOMIC_SPECIES
  Cu   63.54600  Cu_PSEUDO
  Cl   35.45150  Cl_PSEUDO
ATOMIC_POSITIONS {crystal}
Cu   0.000000000000000   0.000000000000000   0.000000000000000 
Cl   0.250000000000000   0.250000000000000   0.250000000000000 

# k-space resolution ~0.2/A.
K_POINTS automatic
10 10 10  0 0 0
