#************************************************************************************
#*                   Generated by cif2cell 1.2.7 2018-12-19 15:06                   *
#*  T. Bjorkman, Comp. Phys. Commun. 182, 1183-1186 (2011). Please cite generously. *
#*                                                                                  *
#*                                 Ge   (Germanium)                                 *
#*                 Wyckoff R W G, Crystal Structures 1, 7-83 (1963)                 *
#************************************************************************************

&SYSTEM
  ibrav = 0
  A =    5.65735
  nat = 2
  ntyp = 1
/
CELL_PARAMETERS {alat}
  0.500000000000000   0.500000000000000   0.000000000000000 
  0.500000000000000   0.000000000000000   0.500000000000000 
  0.000000000000000   0.500000000000000   0.500000000000000 
ATOMIC_SPECIES
  Ge   72.63000  Ge_PSEUDO
ATOMIC_POSITIONS {crystal}
Ge   0.000000000000000   0.000000000000000   0.000000000000000 
Ge   0.250000000000000   0.250000000000000   0.250000000000000 

# k-space resolution ~0.2/A.
K_POINTS automatic
10 10 10  0 0 0
