#************************************************************************************
#*                   Generated by cif2cell 1.2.7 2018-12-19 15:06                   *
#*  T. Bjorkman, Comp. Phys. Commun. 182, 1183-1186 (2011). Please cite generously. *
#*                                                                                  *
#*                                  Mo S2   (MoS2)                                  *
#*               Wyckoff R W G, Crystal Structures 1, 280-281 (1963)                *
#************************************************************************************

&SYSTEM
  ibrav = 0
  A =    3.16000
  nat = 3
  ntyp = 2
/
CELL_PARAMETERS {alat}
  0.577350269189626   0.000000000000000   1.946202531645569 
 -0.288675134594813   0.500000000000000   1.946202531645569 
 -0.288675134594813  -0.500000000000000   1.946202531645569 
ATOMIC_SPECIES
  Mo   95.96000  Mo_PSEUDO
   S   32.06750   S_PSEUDO
ATOMIC_POSITIONS {crystal}
Mo   0.000000000000000   0.000000000000000   0.000000000000000 
 S   0.250000000000000   0.250000000000000   0.250000000000000 
 S   0.417000000000000   0.417000000000000   0.417000000000000 

# k-space resolution ~0.2/A.
K_POINTS automatic
12 12 12  0 0 0
