#************************************************************************************
#*                   Generated by cif2cell 1.2.7 2018-12-19 15:07                   *
#*  T. Bjorkman, Comp. Phys. Commun. 182, 1183-1186 (2011). Please cite generously. *
#*                                                                                  *
#*                                 Zn O   (Zincite)                                 *
#*                Wyckoff R W G, Crystal Structures 1, 85-237 (1963)                *
#************************************************************************************

&SYSTEM
  ibrav = 0
  A =    3.24950
  nat = 4
  ntyp = 2
/
CELL_PARAMETERS {alat}
  0.866025403784439  -0.500000000000000   0.000000000000000 
  0.000000000000000   1.000000000000000   0.000000000000000 
  0.000000000000000   0.000000000000000   1.602369595322357 
ATOMIC_SPECIES
  Zn   65.38000  Zn_PSEUDO
   O   15.99900   O_PSEUDO
ATOMIC_POSITIONS {crystal}
Zn   0.333333333333333   0.666666666666667   0.000000000000000 
Zn   0.666666666666667   0.333333333333333   0.500000000000000 
 O   0.333333333333333   0.666666666666667   0.345000000000000 
 O   0.666666666666667   0.333333333333333   0.845000000000000 

# k-space resolution ~0.2/A.
K_POINTS automatic
11 11 6  0 0 0
