#************************************************************************************
#*                   Generated by cif2cell 1.2.7 2018-12-19 15:07                   *
#*  T. Bjorkman, Comp. Phys. Commun. 182, 1183-1186 (2011). Please cite generously. *
#*                                                                                  *
#*                                  Zn Te   (ZnTe)                                  *
#*                Wyckoff R W G, Crystal Structures 1, 85-237 (1963)                *
#************************************************************************************

&SYSTEM
  ibrav = 0
  A =    6.08900
  nat = 2
  ntyp = 2
/
CELL_PARAMETERS {alat}
  0.500000000000000   0.500000000000000   0.000000000000000 
  0.500000000000000   0.000000000000000   0.500000000000000 
  0.000000000000000   0.500000000000000   0.500000000000000 
ATOMIC_SPECIES
  Zn   65.38000  Zn_PSEUDO
  Te  127.60000  Te_PSEUDO
ATOMIC_POSITIONS {crystal}
Te   0.250000000000000   0.250000000000000   0.250000000000000 
Zn   0.000000000000000   0.000000000000000   0.000000000000000 

# k-space resolution ~0.2/A.
K_POINTS automatic
9 9 9  0 0 0
