#************************************************************************************
#*                  Generated by cif2cell 1.2.10 2020-02-25 15:34                   *
#*  T. Bjorkman, Comp. Phys. Commun. 182, 1183-1186 (2011). Please cite generously. *
#*                                                                                  *
#*                                         ()                                       *
#*             Failed to get author information, No journal information             *
#************************************************************************************

&SYSTEM
  ibrav = 0
  A =    3.82055
  nat = 6
  ntyp = 1
/
CELL_PARAMETERS {alat}
  1.000000000000000   0.000000000000000   0.000000000000000 
 -0.500000000000000   0.866025403784439   0.000000000000000 
  0.000000000000000   0.000000000000000   2.824103859391973 
ATOMIC_SPECIES
  As   74.92100  As_PSEUDO
ATOMIC_POSITIONS {crystal}
As   0.000000000000000   0.000000000000000   0.226570000000000 
As   0.000000000000000   0.000000000000000   0.773430000000000 
As   0.666666666666667   0.333333333333333   0.559900000000000 
As   0.666666666666667   0.333333333333333   0.106760000000000 
As   0.333333333333333   0.666666666666667   0.893240000000000 
As   0.333333333333333   0.666666666666667   0.440100000000000 

# k-space resolution ~0.2/A.
K_POINTS automatic
9 9 3  0 0 0
