#************************************************************************************
#*                  Generated by cif2cell 1.2.10 2020-02-25 15:34                   *
#*  T. Bjorkman, Comp. Phys. Commun. 182, 1183-1186 (2011). Please cite generously. *
#*                                                                                  *
#*                                         ()                                       *
#*             Failed to get author information, No journal information             *
#************************************************************************************

&SYSTEM
  ibrav = 0
  A =    4.58866
  nat = 6
  ntyp = 1
/
CELL_PARAMETERS {alat}
  1.000000000000000   0.000000000000000   0.000000000000000 
 -0.500000000000000   0.866025403784439   0.000000000000000 
  0.000000000000000   0.000000000000000   2.654855665924257 
ATOMIC_SPECIES
  Bi  208.98000  Bi_PSEUDO
ATOMIC_POSITIONS {crystal}
Bi   0.000000000000000   0.000000000000000   0.233740000000000 
Bi   0.000000000000000   0.000000000000000   0.766260000000000 
Bi   0.666666666666667   0.333333333333333   0.567070000000000 
Bi   0.666666666666667   0.333333333333333   0.099590000000000 
Bi   0.333333333333333   0.666666666666667   0.900410000000000 
Bi   0.333333333333333   0.666666666666667   0.432930000000000 

# k-space resolution ~0.2/A.
K_POINTS automatic
8 8 3  0 0 0
