#************************************************************************************
#*                  Generated by cif2cell 1.2.10 2020-02-25 15:34                   *
#*  T. Bjorkman, Comp. Phys. Commun. 182, 1183-1186 (2011). Please cite generously. *
#*                                                                                  *
#*                                         ()                                       *
#*             Failed to get author information, No journal information             *
#************************************************************************************

&SYSTEM
  ibrav = 0
  A =    6.16310
  nat = 8
  ntyp = 1
/
CELL_PARAMETERS {alat}
  1.000000000000000   0.000000000000000   0.000000000000000 
  0.000000000000000   0.597921500543558   0.000000000000000 
 -0.132570199179679   0.000000000000000   1.115845084014637 
ATOMIC_SPECIES
   F   18.99800   F_PSEUDO
ATOMIC_POSITIONS {crystal}
F   0.255000000000000   0.330300000000000   0.094130000000000 
F   0.745000000000000   0.669700000000000   0.905870000000000 
F   0.745000000000000   0.330300000000000   0.405870000000000 
F   0.255000000000000   0.669700000000000   0.594130000000000 
F   0.755000000000000   0.830300000000000   0.094130000000000 
F   0.245000000000000   0.169700000000000   0.905870000000000 
F   0.245000000000000   0.830300000000000   0.405870000000000 
F   0.755000000000000   0.169700000000000   0.594130000000000 

# k-space resolution ~0.2/A.
K_POINTS automatic
5 9 5  0 0 0
