#************************************************************************************
#*                  Generated by cif2cell 1.2.10 2020-02-25 15:34                   *
#*  T. Bjorkman, Comp. Phys. Commun. 182, 1183-1186 (2011). Please cite generously. *
#*                                                                                  *
#*                                         ()                                       *
#*             Failed to get author information, No journal information             *
#************************************************************************************

&SYSTEM
  ibrav = 0
  A =    4.56689
  nat = 8
  ntyp = 1
/
CELL_PARAMETERS {alat}
  1.000000000000000   0.000000000000000   0.000000000000000 
  0.000000000000000   1.697719892530803   0.000000000000000 
  0.000000000000000   0.000000000000000   1.007201837574367 
ATOMIC_SPECIES
  Ga   69.72300  Ga_PSEUDO
ATOMIC_POSITIONS {crystal}
Ga   0.000000000000000   0.156420000000000   0.081200000000000 
Ga   0.000000000000000   0.843580000000000   0.918800000000000 
Ga   0.000000000000000   0.343580000000000   0.581200000000000 
Ga   0.000000000000000   0.656420000000000   0.418800000000000 
Ga   0.500000000000000   0.656420000000000   0.081200000000000 
Ga   0.500000000000000   0.343580000000000   0.918800000000000 
Ga   0.500000000000000   0.843580000000000   0.581200000000000 
Ga   0.500000000000000   0.156420000000000   0.418800000000000 

# k-space resolution ~0.2/A.
K_POINTS automatic
7 4 7  0 0 0
