#************************************************************************************
#*                  Generated by cif2cell 1.2.10 2020-02-25 15:34                   *
#*  T. Bjorkman, Comp. Phys. Commun. 182, 1183-1186 (2011). Please cite generously. *
#*                                                                                  *
#*                                         ()                                       *
#*             Failed to get author information, No journal information             *
#************************************************************************************

&SYSTEM
  ibrav = 0
  A =    3.20273
  nat = 2
  ntyp = 1
/
CELL_PARAMETERS {alat}
  1.000000000000000   0.000000000000000   0.000000000000000 
  0.500000000000000   0.866025403784439   0.000000000000000 
  0.000000000000000   0.000000000000000   1.581441457756352 
ATOMIC_SPECIES
  Hf  178.49000  Hf_PSEUDO
ATOMIC_POSITIONS {crystal}
Hf   0.000000000000000   0.000000000000000   0.000000000000000 
Hf   0.333333333333333   0.333333333333333   0.500000000000000 

# k-space resolution ~0.2/A.
K_POINTS automatic
11 11 6  0 0 0
