#************************************************************************************
#*                  Generated by cif2cell 1.2.10 2020-02-25 15:34                   *
#*  T. Bjorkman, Comp. Phys. Commun. 182, 1183-1186 (2011). Please cite generously. *
#*                                                                                  *
#*                                         ()                                       *
#*             Failed to get author information, No journal information             *
#************************************************************************************

&SYSTEM
  ibrav = 0
  A =    7.64004
  nat = 3
  ntyp = 1
/
CELL_PARAMETERS {alat}
  1.000000000000000   0.000000000000000   0.000000000000000 
  0.918997702781581   0.394262884738314   0.000000000000000 
  0.918997702781581   0.188810379940194   0.346112500076229 
ATOMIC_SPECIES
  Li    6.96750  Li_PSEUDO
ATOMIC_POSITIONS {crystal}
Li   0.000000000000000   0.000000000000000   0.000000000000000 
Li   0.222220000000000   0.222220000000000   0.222220000000000 
Li   0.777780000000000   0.777780000000000   0.777780000000000 

# k-space resolution ~0.2/A.
K_POINTS automatic
12 12 12  0 0 0
