#************************************************************************************
#*                  Generated by cif2cell 1.2.10 2020-02-25 15:34                   *
#*  T. Bjorkman, Comp. Phys. Commun. 182, 1183-1186 (2011). Please cite generously. *
#*                                                                                  *
#*                                         ()                                       *
#*             Failed to get author information, No journal information             *
#************************************************************************************

&SYSTEM
  ibrav = 0
  A =    4.38047
  nat = 6
  ntyp = 1
/
CELL_PARAMETERS {alat}
  1.000000000000000   0.000000000000000   0.000000000000000 
 -0.500000000000000   0.866025403784439   0.000000000000000 
  0.000000000000000   0.000000000000000   2.620275906466658 
ATOMIC_SPECIES
  Sb  121.76000  Sb_PSEUDO
ATOMIC_POSITIONS {crystal}
Sb   0.000000000000000   0.000000000000000   0.233320000000000 
Sb   0.000000000000000   0.000000000000000   0.766680000000000 
Sb   0.666666666666667   0.333333333333333   0.566660000000000 
Sb   0.666666666666667   0.333333333333333   0.100010000000000 
Sb   0.333333333333333   0.666666666666667   0.899990000000000 
Sb   0.333333333333333   0.666666666666667   0.433340000000000 

# k-space resolution ~0.2/A.
K_POINTS automatic
8 8 3  0 0 0
