#************************************************************************************
#*                  Generated by cif2cell 1.2.10 2020-02-25 15:34                   *
#*  T. Bjorkman, Comp. Phys. Commun. 182, 1183-1186 (2011). Please cite generously. *
#*                                                                                  *
#*                                         ()                                       *
#*             Failed to get author information, No journal information             *
#************************************************************************************

&SYSTEM
  ibrav = 0
  A =    4.70647
  nat = 2
  ntyp = 1
/
CELL_PARAMETERS {alat}
  1.000000000000000   0.000000000000000   0.000000000000000 
  0.500000000000000   0.866025403784439   0.000000000000000 
  0.500000000000000   0.288675134594813   0.816496580927726 
ATOMIC_SPECIES
  Sn  118.71000  Sn_PSEUDO
ATOMIC_POSITIONS {crystal}
Sn   0.000000000000000   0.000000000000000   0.000000000000000 
Sn   0.250000000000000   0.250000000000000   0.250000000000000 

# k-space resolution ~0.2/A.
K_POINTS automatic
8 8 8  0 0 0
