#************************************************************************************
#*                  Generated by cif2cell 1.2.10 2020-02-25 15:34                   *
#*  T. Bjorkman, Comp. Phys. Commun. 182, 1183-1186 (2011). Please cite generously. *
#*                                                                                  *
#*                                         ()                                       *
#*             Failed to get author information, No journal information             *
#************************************************************************************

&SYSTEM
  ibrav = 0
  A =    2.66169
  nat = 2
  ntyp = 1
/
CELL_PARAMETERS {alat}
  1.000000000000000   0.000000000000000   0.000000000000000 
  0.500000000000000   0.866025403784439   0.000000000000000 
  0.000000000000000   0.000000000000000   1.879997294951703 
ATOMIC_SPECIES
  Zn   65.38000  Zn_PSEUDO
ATOMIC_POSITIONS {crystal}
Zn   0.000000000000000   0.000000000000000   0.000000000000000 
Zn   0.333333333333333   0.333333333333333   0.500000000000000 

# k-space resolution ~0.2/A.
K_POINTS automatic
14 14 6  0 0 0
