&CONTROL
  calculation = 'scf'
  restart_mode = 'from_scratch'
  pseudo_dir = './'
  outdir = './tmp'
  disk_io = 'none'
  tprnfor = .true.
  tstress = .true.
/

&SYSTEM
  ibrav = 0
  ntyp = 1
  nat = 2
  ecutwfc = 40.0
  ecutrho = 200.0
  nbnd = 22
  nspin = 2
  starting_magnetization(1) = 0.1
  smearing = 'fd'
  occupations = 'smearing'
  smearing = 'mv'
  degauss = 0.01
/

&ELECTRONS
  electron_maxstep = 150
  mixing_beta = 0.1
  scf_must_converge = .false.
/

ATOMIC_SPECIES
Fe 56.0 Fe.upf

ATOMIC_POSITIONS crystal
Fe   0.0  0.0  0.0
Fe   0.5  0.5  0.5

K_POINTS automatic
3 3 3 0 0 0

CELL_PARAMETERS angstrom
2.866 0.0    0.0
0.0   2.866  0.0
0.0   0.0    2.866

