#************************************************************************************
#*                  Generated by cif2cell 1.2.10 2020-02-25 15:34                   *
#*  T. Bjorkman, Comp. Phys. Commun. 182, 1183-1186 (2011). Please cite generously. *
#*                                                                                  *
#*                                         ()                                       *
#*             Failed to get author information, No journal information             *
#************************************************************************************

&SYSTEM
  ibrav = 0
  A =    4.90067
  nat = 12
  ntyp = 1
/
CELL_PARAMETERS {alat}
  1.000000000000000   0.000000000000000   0.000000000000000 
 -0.500000000000000   0.866025403784439   0.000000000000000 
  0.500000000000000  -0.288674850770899   0.853786088267771 
ATOMIC_SPECIES
   B   10.81350   B_PSEUDO
ATOMIC_POSITIONS {crystal}
B   0.989690000000000   0.010310000000000   0.674650000000000 
B   0.010310000000000   0.989690000000000   0.325350000000000 
B   0.989690000000000   0.654040000000000   0.674650000000000 
B   0.010310000000000   0.345960000000000   0.325350000000000 
B   0.345960000000000   0.010310000000000   0.674650000000000 
B   0.654040000000000   0.989690000000000   0.325350000000000 
B   0.778850000000000   0.221150000000000   0.072740000000000 
B   0.221150000000000   0.778850000000000   0.927260000000000 
B   0.778850000000000   0.630430000000000   0.072740000000000 
B   0.221150000000000   0.369570000000000   0.927260000000000 
B   0.369570000000000   0.221150000000000   0.072740000000000 
B   0.630430000000000   0.778850000000000   0.927260000000000 

# k-space resolution ~0.2/A.
K_POINTS automatic
8 8 8  0 0 0
