#************************************************************************************
#*                  Generated by cif2cell 1.2.10 2020-02-25 15:34                   *
#*  T. Bjorkman, Comp. Phys. Commun. 182, 1183-1186 (2011). Please cite generously. *
#*                                                                                  *
#*                                         ()                                       *
#*             Failed to get author information, No journal information             *
#************************************************************************************

&SYSTEM
  ibrav = 0
  A =    2.46857
  nat = 4
  ntyp = 1
/
CELL_PARAMETERS {alat}
  1.000000000000000   0.000000000000000   0.000000000000000 
 -0.500000000000000   0.866025403784439   0.000000000000000 
  0.000000000000000   0.000000000000000   3.581340614201744 
ATOMIC_SPECIES
   C   12.01060   C_PSEUDO
ATOMIC_POSITIONS {crystal}
C   0.000000000000000   0.000000000000000   0.250000000000000 
C   0.000000000000000   0.000000000000000   0.750000000000000 
C   0.333333333333333   0.666666666666667   0.250000000000000 
C   0.666666666666667   0.333333333333333   0.750000000000000 

# k-space resolution ~0.2/A.
K_POINTS automatic
15 15 4  0 0 0
