#************************************************************************************
#*                  Generated by cif2cell 1.2.10 2020-02-25 15:34                   *
#*  T. Bjorkman, Comp. Phys. Commun. 182, 1183-1186 (2011). Please cite generously. *
#*                                                                                  *
#*                                         ()                                       *
#*             Failed to get author information, No journal information             *
#************************************************************************************

&SYSTEM
  ibrav = 0
  A =    4.00759
  nat = 4
  ntyp = 1
/
CELL_PARAMETERS {alat}
  1.000000000000000   0.000000000000000   0.000000000000000 
 -0.500000000000000   0.866025403784439   0.000000000000000 
  0.000000000000000   0.000000000000000   1.248398663535941 
ATOMIC_SPECIES
   H    1.00750   H_PSEUDO
ATOMIC_POSITIONS {crystal}
H   0.333333333333333   0.666666666666667   0.174980000000000 
H   0.666666666666667   0.333333333333333   0.825020000000000 
H   0.666666666666667   0.333333333333333   0.674980000000000 
H   0.333333333333333   0.666666666666667   0.325020000000000 

# k-space resolution ~0.2/A.
K_POINTS automatic
9 9 6  0 0 0
