#************************************************************************************
#*                  Generated by cif2cell 1.2.10 2020-02-25 15:34                   *
#*  T. Bjorkman, Comp. Phys. Commun. 182, 1183-1186 (2011). Please cite generously. *
#*                                                                                  *
#*                                         ()                                       *
#*             Failed to get author information, No journal information             *
#************************************************************************************

&SYSTEM
  ibrav = 0
  A =    6.19019
  nat = 8
  ntyp = 1
/
CELL_PARAMETERS {alat}
  1.000000000000000   0.000000000000000   0.000000000000000 
  0.000000000000000   1.000000000000000   0.000000000000000 
  0.000000000000000   0.000000000000000   1.000000000000000 
ATOMIC_SPECIES
   N   14.00650   N_PSEUDO
ATOMIC_POSITIONS {crystal}
N   0.051890000000000   0.051890000000000   0.051890000000000 
N   0.948110000000000   0.948110000000000   0.948110000000000 
N   0.448110000000000   0.948110000000000   0.551890000000000 
N   0.551890000000000   0.051890000000000   0.448110000000000 
N   0.948110000000000   0.551890000000000   0.448110000000000 
N   0.051890000000000   0.448110000000000   0.551890000000000 
N   0.551890000000000   0.448110000000000   0.948110000000000 
N   0.448110000000000   0.551890000000000   0.051890000000000 

# k-space resolution ~0.2/A.
K_POINTS automatic
5 5 5  0 0 0
