#************************************************************************************
#*                  Generated by cif2cell 1.2.10 2020-02-25 15:34                   *
#*  T. Bjorkman, Comp. Phys. Commun. 182, 1183-1186 (2011). Please cite generously. *
#*                                                                                  *
#*                                         ()                                       *
#*             Failed to get author information, No journal information             *
#************************************************************************************

&SYSTEM
  ibrav = 0
  A =    9.41813
  nat = 3
  ntyp = 1
/
CELL_PARAMETERS {alat}
  1.000000000000000   0.000000000000000   0.000000000000000 
  0.921035720861026   0.389478113503198   0.000000000000000 
  0.921035720861026   0.186734297095333   0.341794533581684 
ATOMIC_SPECIES
  Na   22.98900  Na_PSEUDO
ATOMIC_POSITIONS {crystal}
Na   0.000000000000000   0.000000000000000   0.000000000000000 
Na   0.222220000000000   0.222220000000000   0.222220000000000 
Na   0.777780000000000   0.777780000000000   0.777780000000000 

# k-space resolution ~0.2/A.
K_POINTS automatic
10 10 10  0 0 0
