#************************************************************************************
#*                  Generated by cif2cell 1.2.10 2020-02-25 15:34                   *
#*  T. Bjorkman, Comp. Phys. Commun. 182, 1183-1186 (2011). Please cite generously. *
#*                                                                                  *
#*                                         ()                                       *
#*             Failed to get author information, No journal information             *
#************************************************************************************

&SYSTEM
  ibrav = 0
  A =    3.30466
  nat = 8
  ntyp = 1
/
CELL_PARAMETERS {alat}
  1.000000000000000   0.000000000000000   0.000000000000000 
  0.000000000000000   3.424539892152294   0.000000000000000 
  0.000000000000000   0.000000000000000   1.383885180321122 
ATOMIC_SPECIES
   P   30.97300   P_PSEUDO
ATOMIC_POSITIONS {crystal}
P   0.000000000000000   0.093570000000000   0.087190000000000 
P   0.000000000000000   0.906430000000000   0.912810000000000 
P   0.000000000000000   0.406430000000000   0.587190000000000 
P   0.000000000000000   0.593570000000000   0.412810000000000 
P   0.500000000000000   0.593570000000000   0.087190000000000 
P   0.500000000000000   0.406430000000000   0.912810000000000 
P   0.500000000000000   0.906430000000000   0.587190000000000 
P   0.500000000000000   0.093570000000000   0.412810000000000 

# k-space resolution ~0.2/A.
K_POINTS automatic
10 3 7  0 0 0
