#************************************************************************************
#*                  Generated by cif2cell 1.2.10 2020-02-25 15:34                   *
#*  T. Bjorkman, Comp. Phys. Commun. 182, 1183-1186 (2011). Please cite generously. *
#*                                                                                  *
#*                                         ()                                       *
#*             Failed to get author information, No journal information             *
#************************************************************************************

&SYSTEM
  ibrav = 0
  A =    2.58153
  nat = 1
  ntyp = 1
/
CELL_PARAMETERS {alat}
  1.000000000000000   0.000000000000000   0.000000000000000 
 -0.025398964829965   0.999677394255550   0.000000000000000 
 -0.025398964829965  -0.026052476923111   0.999337861302041 
ATOMIC_SPECIES
   S   32.06750   S_PSEUDO
ATOMIC_POSITIONS {crystal}
S   0.000000000000000   0.000000000000000   0.000000000000000 

# k-space resolution ~0.2/A.
K_POINTS automatic
12 12 12  0 0 0
