#************************************************************************************
#*                  Generated by cif2cell 1.2.10 2020-02-25 15:30                   *
#*  T. Bjorkman, Comp. Phys. Commun. 182, 1183-1186 (2011). Please cite generously. *
#*                                                                                  *
#*                                         ()                                       *
#*             Failed to get author information, No journal information             *
#************************************************************************************

&SYSTEM
  ibrav = 0
  A =    8.22860
  nat = 4
  ntyp = 1
/
CELL_PARAMETERS {alat}
  0.500000000000000  -0.256866875361620   0.000000000000000 
  0.500000000000000   0.256866875361620   0.000000000000000 
  0.000000000000000   0.000000000000000   1.097784591954132 
ATOMIC_SPECIES
  Br   79.90400  Br_PSEUDO
ATOMIC_POSITIONS {crystal}
Br   0.624260000000000   0.375740000000000   0.117160000000000 
Br   0.875740000000000   0.124260000000000   0.617160000000000 
Br   0.124260000000000   0.875740000000000   0.382840000000000 
Br   0.375740000000000   0.624260000000000   0.882840000000000 

# k-space resolution ~0.2/A.
K_POINTS automatic
8 8 3  0 0 0
