#************************************************************************************
#*                  Generated by cif2cell 1.2.10 2020-02-25 15:30                   *
#*  T. Bjorkman, Comp. Phys. Commun. 182, 1183-1186 (2011). Please cite generously. *
#*                                                                                  *
#*                                         ()                                       *
#*             Failed to get author information, No journal information             *
#************************************************************************************

&SYSTEM
  ibrav = 0
  A =    6.16310
  nat = 8
  ntyp = 1
/
CELL_PARAMETERS {alat}
  0.433714907613635  -0.557922481375578   0.000000000000000 
  0.566285092386365   0.557922481375578   0.000000000000000 
  0.000000000000000   0.000000000000000   0.597921370064211 
ATOMIC_SPECIES
   F   18.99800   F_PSEUDO
ATOMIC_POSITIONS {crystal}
F   0.650870000000000   0.839130000000000   0.330300000000000 
F   0.349130000000000   0.160870000000000   0.830300000000000 
F   0.849130000000000   0.660870000000000   0.169700000000000 
F   0.849130000000000   0.660870000000000   0.330300000000000 
F   0.349130000000000   0.160870000000000   0.669700000000000 
F   0.650870000000000   0.839130000000000   0.169700000000000 
F   0.150870000000000   0.339130000000000   0.830300000000000 
F   0.150870000000000   0.339130000000000   0.669700000000000 

# k-space resolution ~0.2/A.
K_POINTS automatic
7 6 9  0 0 0
