#************************************************************************************
#*                  Generated by cif2cell 1.2.10 2020-02-25 15:30                   *
#*  T. Bjorkman, Comp. Phys. Commun. 182, 1183-1186 (2011). Please cite generously. *
#*                                                                                  *
#*                                         ()                                       *
#*             Failed to get author information, No journal information             *
#************************************************************************************

&SYSTEM
  ibrav = 0
  A =    5.46889
  nat = 2
  ntyp = 1
/
CELL_PARAMETERS {alat}
  0.500000000000000   0.500000000000000   0.000000000000000 
  0.500000000000000   0.000000000000000   0.500000000000000 
  0.000000000000000   0.500000000000000   0.500000000000000 
ATOMIC_SPECIES
  Si   28.08500  Si_PSEUDO
ATOMIC_POSITIONS {crystal}
Si   0.875000000000000   0.875000000000000   0.875000000000000 
Si   0.125000000000000   0.125000000000000   0.125000000000000 

# k-space resolution ~0.2/A.
K_POINTS automatic
10 10 10  0 0 0
