#************************************************************************************
#*                  Generated by cif2cell 1.2.10 2020-02-25 15:30                   *
#*  T. Bjorkman, Comp. Phys. Commun. 182, 1183-1186 (2011). Please cite generously. *
#*                                                                                  *
#*                                         ()                                       *
#*             Failed to get author information, No journal information             *
#************************************************************************************

&SYSTEM
  ibrav = 0
  A =    2.93664
  nat = 2
  ntyp = 1
/
CELL_PARAMETERS {alat}
  0.866025403784439  -0.500000000000000   0.000000000000000 
  0.000000000000000   1.000000000000000   0.000000000000000 
  0.000000000000000   0.000000000000000   1.584099373467423 
ATOMIC_SPECIES
  Ti   47.86700  Ti_PSEUDO
ATOMIC_POSITIONS {crystal}
Ti   0.333333333333333   0.666666666666667   0.750000000000000 
Ti   0.666666666666667   0.333333333333333   0.250000000000000 

# k-space resolution ~0.2/A.
K_POINTS automatic
12 12 7  0 0 0
