#************************************************************************************
#*                  Generated by cif2cell 1.2.10 2020-02-25 15:30                   *
#*  T. Bjorkman, Comp. Phys. Commun. 182, 1183-1186 (2011). Please cite generously. *
#*                                                                                  *
#*                                         ()                                       *
#*             Failed to get author information, No journal information             *
#************************************************************************************

&SYSTEM
  ibrav = 0
  A =    7.77875
  nat = 4
  ntyp = 1
/
CELL_PARAMETERS {alat}
  0.500000000000000  -0.279569961588929   0.000000000000000 
  0.500000000000000   0.279569961588929   0.000000000000000 
  0.000000000000000   0.000000000000000   1.160538580313770 
ATOMIC_SPECIES
  Cl   35.45150  Cl_PSEUDO
ATOMIC_POSITIONS {crystal}
Cl   0.591180000000000   0.408820000000000   0.101520000000000 
Cl   0.908820000000000   0.091180000000000   0.601520000000000 
Cl   0.091180000000000   0.908820000000000   0.398480000000000 
Cl   0.408820000000000   0.591180000000000   0.898480000000000 

# k-space resolution ~0.2/A.
K_POINTS automatic
8 8 3  0 0 0
