#************************************************************************************
#*                  Generated by cif2cell 1.2.10 2020-02-25 15:30                   *
#*  T. Bjorkman, Comp. Phys. Commun. 182, 1183-1186 (2011). Please cite generously. *
#*                                                                                  *
#*                                         ()                                       *
#*             Failed to get author information, No journal information             *
#************************************************************************************

&SYSTEM
  ibrav = 0
  A =    4.57148
  nat = 4
  ntyp = 1
/
CELL_PARAMETERS {alat}
  1.000000000000000   0.000000000000000   0.000000000000000 
 -0.369282320616485   0.858341338349942   0.000000000000000 
  0.000000000000000   0.000000000000000   0.935544040680060 
ATOMIC_SPECIES
   O   15.99900   O_PSEUDO
ATOMIC_POSITIONS {crystal}
O   0.353330000000000   0.437820000000000   0.000000000000000 
O   0.646670000000000   0.562180000000000   0.000000000000000 
O   0.353330000000000   0.937820000000000   0.500000000000000 
O   0.646670000000000   0.062180000000000   0.500000000000000 

# k-space resolution ~0.2/A.
K_POINTS automatic
7 8 7  0 0 0
