#************************************************************************************
#*                  Generated by cif2cell 1.2.10 2020-02-25 15:30                   *
#*  T. Bjorkman, Comp. Phys. Commun. 182, 1183-1186 (2011). Please cite generously. *
#*                                                                                  *
#*                                         ()                                       *
#*             Failed to get author information, No journal information             *
#************************************************************************************

&SYSTEM
  ibrav = 0
  A =    4.52464
  nat = 3
  ntyp = 1
/
CELL_PARAMETERS {alat}
  0.866025403784439  -0.500000000000000   0.000000000000000 
  0.000000000000000   1.000000000000000   0.000000000000000 
  0.000000000000000   0.000000000000000   1.116062323659926 
ATOMIC_SPECIES
  Se   78.96000  Se_PSEUDO
ATOMIC_POSITIONS {crystal}
Se   0.219030000000000   0.000000000000000   0.333333333333333 
Se   0.780970000000000   0.780970000000000   0.000000000000000 
Se   0.000000000000000   0.219030000000000   0.666666666666667 

# k-space resolution ~0.2/A.
K_POINTS automatic
8 8 6  0 0 0
