#************************************************************************************
#*                  Generated by cif2cell 1.2.10 2020-02-25 15:30                   *
#*  T. Bjorkman, Comp. Phys. Commun. 182, 1183-1186 (2011). Please cite generously. *
#*                                                                                  *
#*                                         ()                                       *
#*             Failed to get author information, No journal information             *
#************************************************************************************

&SYSTEM
  ibrav = 0
  A =    4.50788
  nat = 3
  ntyp = 1
/
CELL_PARAMETERS {alat}
  0.866025403784439  -0.500000000000000   0.000000000000000 
  0.000000000000000   1.000000000000000   0.000000000000000 
  0.000000000000000   0.000000000000000   1.322896937317292 
ATOMIC_SPECIES
  Te  127.60000  Te_PSEUDO
ATOMIC_POSITIONS {crystal}
Te   0.269660000000000   0.000000000000000   0.333333333333333 
Te   0.730340000000000   0.730340000000000   0.000000000000000 
Te   0.000000000000000   0.269660000000000   0.666666666666667 

# k-space resolution ~0.2/A.
K_POINTS automatic
8 8 5  0 0 0
