#************************************************************************************
#*                   Generated by cif2cell 1.2.7 2018-12-19 15:06                   *
#*  T. Bjorkman, Comp. Phys. Commun. 182, 1183-1186 (2011). Please cite generously. *
#*                                                                                  *
#*                                   Al P   (AlP)                                   *
#*                Wyckoff R W G, Crystal Structures 1, 85-237 (1963)                *
#************************************************************************************

&SYSTEM
  ibrav = 0
  A =    5.45100
  nat = 2
  ntyp = 2
/
CELL_PARAMETERS {alat}
  0.500000000000000   0.500000000000000   0.000000000000000 
  0.500000000000000   0.000000000000000   0.500000000000000 
  0.000000000000000   0.500000000000000   0.500000000000000 
ATOMIC_SPECIES
   P   30.97300   P_PSEUDO
  Al   26.98100  Al_PSEUDO
ATOMIC_POSITIONS {crystal}
 P   0.250000000000000   0.250000000000000   0.250000000000000 
Al   0.000000000000000   0.000000000000000   0.000000000000000 

# k-space resolution ~0.2/A.
K_POINTS automatic
10 10 10  0 0 0
