#************************************************************************************
#*                   Generated by cif2cell 1.2.7 2018-12-19 15:06                   *
#*  T. Bjorkman, Comp. Phys. Commun. 182, 1183-1186 (2011). Please cite generously. *
#*                                                                                  *
#*                              Cd Se   (Cadmoselite)                               *
#*                Wyckoff R W G, Crystal Structures 1, 85-237 (1963)                *
#************************************************************************************

&SYSTEM
  ibrav = 0
  A =    4.30000
  nat = 4
  ntyp = 2
/
CELL_PARAMETERS {alat}
  0.866025403784439  -0.500000000000000   0.000000000000000 
  0.000000000000000   1.000000000000000   0.000000000000000 
  0.000000000000000   0.000000000000000   1.632558139534884 
ATOMIC_SPECIES
  Se   78.96000  Se_PSEUDO
  Cd  112.41100  Cd_PSEUDO
ATOMIC_POSITIONS {crystal}
Cd   0.333333333333333   0.666666666666667   0.000000000000000 
Cd   0.666666666666667   0.333333333333333   0.500000000000000 
Se   0.333333333333333   0.666666666666667   0.385000000000000 
Se   0.666666666666667   0.333333333333333   0.885000000000000 

# k-space resolution ~0.2/A.
K_POINTS automatic
8 8 4  0 0 0
