#************************************************************************************
#*                   Generated by cif2cell 1.2.7 2018-12-19 15:06                   *
#*  T. Bjorkman, Comp. Phys. Commun. 182, 1183-1186 (2011). Please cite generously. *
#*                                                                                  *
#*                                 Fe O   (Wustite)                                 *
#*                Wyckoff R W G, Crystal Structures 1, 85-237 (1963)                *
#************************************************************************************

&SYSTEM
  ibrav = 0
  A =    4.31080
  nat = 2
  ntyp = 2
/
CELL_PARAMETERS {alat}
  0.500000000000000   0.500000000000000   0.000000000000000 
  0.500000000000000   0.000000000000000   0.500000000000000 
  0.000000000000000   0.500000000000000   0.500000000000000 
ATOMIC_SPECIES
  Fe   55.84500  Fe_PSEUDO
   O   15.99900   O_PSEUDO
ATOMIC_POSITIONS {crystal}
Fe   0.000000000000000   0.000000000000000   0.000000000000000 
 O   0.500000000000000   0.500000000000000   0.500000000000000 

# k-space resolution ~0.2/A.
K_POINTS automatic
13 13 13  0 0 0
